Route #1: 0 41 52 16 9 4 31 55 14 11 0
Route #2: 0 6 38 22 1 56 0
Route #3: 0 18 43 17 19 24 10 0
Route #4: 0 28 44 39 23 2 63 47 8 32 0
Route #5: 0 33 48 51 42 61 0
Route #6: 0 25 15 57 35 27 30 37 3 0
Route #7: 0 53 59 50 58 34 20 0
Route #8: 0 54 36 40 49 62 0
Route #9: 0 13 60 46 5 7 21 26 12 45 29 0
Cost 2075:
